p cnf 49 690
-42 43 7 48 49 0
-42 -43 -7 -48 -49 0
-42 -43 -7 48 -49 0
-42 -43 7 -48 -49 0
-42 -43 7 48 -49 0
-42 43 -7 -48 -49 0
-42 43 7 48 -49 0
42 -43 -7 -48 -49 0
42 -43 -7 48 -49 0
42 -43 7 -48 -49 0
42 -43 7 48 -49 0
42 43 -7 48 -49 0
42 43 7 -48 -49 0
42 43 7 48 -49 0
-41 49 6 47 48 0
-41 -49 -6 -47 -48 0
-41 -49 -6 47 -48 0
-41 -49 6 -47 -48 0
-41 -49 6 47 -48 0
-41 49 -6 -47 -48 0
-41 49 6 47 -48 0
41 -49 -6 -47 -48 0
41 -49 -6 47 -48 0
41 -49 6 -47 -48 0
41 -49 6 47 -48 0
41 49 -6 47 -48 0
41 49 6 -47 -48 0
41 49 6 47 -48 0
-40 48 5 46 47 0
-40 -48 -5 -46 -47 0
-40 -48 -5 46 -47 0
-40 -48 5 -46 -47 0
-40 -48 5 46 -47 0
-40 48 -5 -46 -47 0
-40 48 5 46 -47 0
40 -48 -5 -46 -47 0
40 -48 -5 46 -47 0
40 -48 5 -46 -47 0
40 -48 5 46 -47 0
40 48 -5 46 -47 0
40 48 5 -46 -47 0
40 48 5 46 -47 0
-39 47 4 45 46 0
-39 -47 -4 -45 -46 0
-39 -47 -4 45 -46 0
-39 -47 4 -45 -46 0
-39 -47 4 45 -46 0
-39 47 -4 -45 -46 0
-39 47 4 45 -46 0
39 -47 -4 -45 -46 0
39 -47 -4 45 -46 0
39 -47 4 -45 -46 0
39 -47 4 45 -46 0
39 47 -4 45 -46 0
39 47 4 -45 -46 0
39 47 4 45 -46 0
-38 46 3 44 45 0
-38 -46 -3 -44 -45 0
-38 -46 -3 44 -45 0
-38 -46 3 -44 -45 0
-38 -46 3 44 -45 0
-38 46 -3 -44 -45 0
-38 46 3 44 -45 0
38 -46 -3 -44 -45 0
38 -46 -3 44 -45 0
38 -46 3 -44 -45 0
38 -46 3 44 -45 0
38 46 -3 44 -45 0
38 46 3 -44 -45 0
38 46 3 44 -45 0
-37 45 2 43 44 0
-37 -45 -2 -43 -44 0
-37 -45 -2 43 -44 0
-37 -45 2 -43 -44 0
-37 -45 2 43 -44 0
-37 45 -2 -43 -44 0
-37 45 2 43 -44 0
37 -45 -2 -43 -44 0
37 -45 -2 43 -44 0
37 -45 2 -43 -44 0
37 -45 2 43 -44 0
37 45 -2 43 -44 0
37 45 2 -43 -44 0
37 45 2 43 -44 0
-36 44 1 49 43 0
-36 -44 -1 -49 -43 0
-36 -44 -1 49 -43 0
-36 -44 1 -49 -43 0
-36 -44 1 49 -43 0
-36 44 -1 -49 -43 0
-36 44 1 49 -43 0
36 -44 -1 -49 -43 0
36 -44 -1 49 -43 0
36 -44 1 -49 -43 0
36 -44 1 49 -43 0
36 44 -1 49 -43 0
36 44 1 -49 -43 0
36 44 1 49 -43 0
-35 36 49 41 42 0
-35 -36 -49 -41 -42 0
-35 -36 -49 41 -42 0
-35 -36 49 -41 -42 0
-35 -36 49 41 -42 0
-35 36 -49 -41 -42 0
-35 36 49 41 -42 0
35 -36 -49 -41 -42 0
35 -36 -49 41 -42 0
35 -36 49 -41 -42 0
35 -36 49 41 -42 0
35 36 -49 41 -42 0
35 36 49 -41 -42 0
35 36 49 41 -42 0
-34 42 48 40 41 0
-34 -42 -48 -40 -41 0
-34 -42 -48 40 -41 0
-34 -42 48 -40 -41 0
-34 -42 48 40 -41 0
-34 42 -48 -40 -41 0
-34 42 48 40 -41 0
34 -42 -48 -40 -41 0
34 -42 -48 40 -41 0
34 -42 48 -40 -41 0
34 -42 48 40 -41 0
34 42 -48 40 -41 0
34 42 48 -40 -41 0
34 42 48 40 -41 0
-33 41 47 39 40 0
-33 -41 -47 -39 -40 0
-33 -41 -47 39 -40 0
-33 -41 47 -39 -40 0
-33 -41 47 39 -40 0
-33 41 -47 -39 -40 0
-33 41 47 39 -40 0
33 -41 -47 -39 -40 0
33 -41 -47 39 -40 0
33 -41 47 -39 -40 0
33 -41 47 39 -40 0
33 41 -47 39 -40 0
33 41 47 -39 -40 0
33 41 47 39 -40 0
-32 40 46 38 39 0
-32 -40 -46 -38 -39 0
-32 -40 -46 38 -39 0
-32 -40 46 -38 -39 0
-32 -40 46 38 -39 0
-32 40 -46 -38 -39 0
-32 40 46 38 -39 0
32 -40 -46 -38 -39 0
32 -40 -46 38 -39 0
32 -40 46 -38 -39 0
32 -40 46 38 -39 0
32 40 -46 38 -39 0
32 40 46 -38 -39 0
32 40 46 38 -39 0
-31 39 45 37 38 0
-31 -39 -45 -37 -38 0
-31 -39 -45 37 -38 0
-31 -39 45 -37 -38 0
-31 -39 45 37 -38 0
-31 39 -45 -37 -38 0
-31 39 45 37 -38 0
31 -39 -45 -37 -38 0
31 -39 -45 37 -38 0
31 -39 45 -37 -38 0
31 -39 45 37 -38 0
31 39 -45 37 -38 0
31 39 45 -37 -38 0
31 39 45 37 -38 0
-30 38 44 36 37 0
-30 -38 -44 -36 -37 0
-30 -38 -44 36 -37 0
-30 -38 44 -36 -37 0
-30 -38 44 36 -37 0
-30 38 -44 -36 -37 0
-30 38 44 36 -37 0
30 -38 -44 -36 -37 0
30 -38 -44 36 -37 0
30 -38 44 -36 -37 0
30 -38 44 36 -37 0
30 38 -44 36 -37 0
30 38 44 -36 -37 0
30 38 44 36 -37 0
-29 37 43 42 36 0
-29 -37 -43 -42 -36 0
-29 -37 -43 42 -36 0
-29 -37 43 -42 -36 0
-29 -37 43 42 -36 0
-29 37 -43 -42 -36 0
-29 37 43 42 -36 0
29 -37 -43 -42 -36 0
29 -37 -43 42 -36 0
29 -37 43 -42 -36 0
29 -37 43 42 -36 0
29 37 -43 42 -36 0
29 37 43 -42 -36 0
29 37 43 42 -36 0
-28 29 42 34 35 0
-28 -29 -42 -34 -35 0
-28 -29 -42 34 -35 0
-28 -29 42 -34 -35 0
-28 -29 42 34 -35 0
-28 29 -42 -34 -35 0
-28 29 42 34 -35 0
28 -29 -42 -34 -35 0
28 -29 -42 34 -35 0
28 -29 42 -34 -35 0
28 -29 42 34 -35 0
28 29 -42 34 -35 0
28 29 42 -34 -35 0
28 29 42 34 -35 0
-27 35 41 33 34 0
-27 -35 -41 -33 -34 0
-27 -35 -41 33 -34 0
-27 -35 41 -33 -34 0
-27 -35 41 33 -34 0
-27 35 -41 -33 -34 0
-27 35 41 33 -34 0
27 -35 -41 -33 -34 0
27 -35 -41 33 -34 0
27 -35 41 -33 -34 0
27 -35 41 33 -34 0
27 35 -41 33 -34 0
27 35 41 -33 -34 0
27 35 41 33 -34 0
-26 34 40 32 33 0
-26 -34 -40 -32 -33 0
-26 -34 -40 32 -33 0
-26 -34 40 -32 -33 0
-26 -34 40 32 -33 0
-26 34 -40 -32 -33 0
-26 34 40 32 -33 0
26 -34 -40 -32 -33 0
26 -34 -40 32 -33 0
26 -34 40 -32 -33 0
26 -34 40 32 -33 0
26 34 -40 32 -33 0
26 34 40 -32 -33 0
26 34 40 32 -33 0
-25 33 39 31 32 0
-25 -33 -39 -31 -32 0
-25 -33 -39 31 -32 0
-25 -33 39 -31 -32 0
-25 -33 39 31 -32 0
-25 33 -39 -31 -32 0
-25 33 39 31 -32 0
25 -33 -39 -31 -32 0
25 -33 -39 31 -32 0
25 -33 39 -31 -32 0
25 -33 39 31 -32 0
25 33 -39 31 -32 0
25 33 39 -31 -32 0
25 33 39 31 -32 0
-24 32 38 30 31 0
-24 -32 -38 -30 -31 0
-24 -32 -38 30 -31 0
-24 -32 38 -30 -31 0
-24 -32 38 30 -31 0
-24 32 -38 -30 -31 0
-24 32 38 30 -31 0
24 -32 -38 -30 -31 0
24 -32 -38 30 -31 0
24 -32 38 -30 -31 0
24 -32 38 30 -31 0
24 32 -38 30 -31 0
24 32 38 -30 -31 0
24 32 38 30 -31 0
-23 31 37 29 30 0
-23 -31 -37 -29 -30 0
-23 -31 -37 29 -30 0
-23 -31 37 -29 -30 0
-23 -31 37 29 -30 0
-23 31 -37 -29 -30 0
-23 31 37 29 -30 0
23 -31 -37 -29 -30 0
23 -31 -37 29 -30 0
23 -31 37 -29 -30 0
23 -31 37 29 -30 0
23 31 -37 29 -30 0
23 31 37 -29 -30 0
23 31 37 29 -30 0
-22 30 36 35 29 0
-22 -30 -36 -35 -29 0
-22 -30 -36 35 -29 0
-22 -30 36 -35 -29 0
-22 -30 36 35 -29 0
-22 30 -36 -35 -29 0
-22 30 36 35 -29 0
22 -30 -36 -35 -29 0
22 -30 -36 35 -29 0
22 -30 36 -35 -29 0
22 -30 36 35 -29 0
22 30 -36 35 -29 0
22 30 36 -35 -29 0
22 30 36 35 -29 0
-21 22 35 27 28 0
-21 -22 -35 -27 -28 0
-21 -22 -35 27 -28 0
-21 -22 35 -27 -28 0
-21 -22 35 27 -28 0
-21 22 -35 -27 -28 0
-21 22 35 27 -28 0
21 -22 -35 -27 -28 0
21 -22 -35 27 -28 0
21 -22 35 -27 -28 0
21 -22 35 27 -28 0
21 22 -35 27 -28 0
21 22 35 -27 -28 0
21 22 35 27 -28 0
-20 28 34 26 27 0
-20 -28 -34 -26 -27 0
-20 -28 -34 26 -27 0
-20 -28 34 -26 -27 0
-20 -28 34 26 -27 0
-20 28 -34 -26 -27 0
-20 28 34 26 -27 0
20 -28 -34 -26 -27 0
20 -28 -34 26 -27 0
20 -28 34 -26 -27 0
20 -28 34 26 -27 0
20 28 -34 26 -27 0
20 28 34 -26 -27 0
20 28 34 26 -27 0
-19 27 33 25 26 0
-19 -27 -33 -25 -26 0
-19 -27 -33 25 -26 0
-19 -27 33 -25 -26 0
-19 -27 33 25 -26 0
-19 27 -33 -25 -26 0
-19 27 33 25 -26 0
19 -27 -33 -25 -26 0
19 -27 -33 25 -26 0
19 -27 33 -25 -26 0
19 -27 33 25 -26 0
19 27 -33 25 -26 0
19 27 33 -25 -26 0
19 27 33 25 -26 0
-18 26 32 24 25 0
-18 -26 -32 -24 -25 0
-18 -26 -32 24 -25 0
-18 -26 32 -24 -25 0
-18 -26 32 24 -25 0
-18 26 -32 -24 -25 0
-18 26 32 24 -25 0
18 -26 -32 -24 -25 0
18 -26 -32 24 -25 0
18 -26 32 -24 -25 0
18 -26 32 24 -25 0
18 26 -32 24 -25 0
18 26 32 -24 -25 0
18 26 32 24 -25 0
-17 25 31 23 24 0
-17 -25 -31 -23 -24 0
-17 -25 -31 23 -24 0
-17 -25 31 -23 -24 0
-17 -25 31 23 -24 0
-17 25 -31 -23 -24 0
-17 25 31 23 -24 0
17 -25 -31 -23 -24 0
17 -25 -31 23 -24 0
17 -25 31 -23 -24 0
17 -25 31 23 -24 0
17 25 -31 23 -24 0
17 25 31 -23 -24 0
17 25 31 23 -24 0
-16 24 30 22 23 0
-16 -24 -30 -22 -23 0
-16 -24 -30 22 -23 0
-16 -24 30 -22 -23 0
-16 -24 30 22 -23 0
-16 24 -30 -22 -23 0
-16 24 30 22 -23 0
16 -24 -30 -22 -23 0
16 -24 -30 22 -23 0
16 -24 30 -22 -23 0
16 -24 30 22 -23 0
16 24 -30 22 -23 0
16 24 30 -22 -23 0
16 24 30 22 -23 0
-15 23 29 28 22 0
-15 -23 -29 -28 -22 0
-15 -23 -29 28 -22 0
-15 -23 29 -28 -22 0
-15 -23 29 28 -22 0
-15 23 -29 -28 -22 0
-15 23 29 28 -22 0
15 -23 -29 -28 -22 0
15 -23 -29 28 -22 0
15 -23 29 -28 -22 0
15 -23 29 28 -22 0
15 23 -29 28 -22 0
15 23 29 -28 -22 0
15 23 29 28 -22 0
-14 15 28 20 21 0
-14 -15 -28 -20 -21 0
-14 -15 -28 20 -21 0
-14 -15 28 -20 -21 0
-14 -15 28 20 -21 0
-14 15 -28 -20 -21 0
-14 15 28 20 -21 0
14 -15 -28 -20 -21 0
14 -15 -28 20 -21 0
14 -15 28 -20 -21 0
14 -15 28 20 -21 0
14 15 -28 20 -21 0
14 15 28 -20 -21 0
14 15 28 20 -21 0
-13 21 27 19 20 0
-13 -21 -27 -19 -20 0
-13 -21 -27 19 -20 0
-13 -21 27 -19 -20 0
-13 -21 27 19 -20 0
-13 21 -27 -19 -20 0
-13 21 27 19 -20 0
13 -21 -27 -19 -20 0
13 -21 -27 19 -20 0
13 -21 27 -19 -20 0
13 -21 27 19 -20 0
13 21 -27 19 -20 0
13 21 27 -19 -20 0
13 21 27 19 -20 0
-12 20 26 18 19 0
-12 -20 -26 -18 -19 0
-12 -20 -26 18 -19 0
-12 -20 26 -18 -19 0
-12 -20 26 18 -19 0
-12 20 -26 -18 -19 0
-12 20 26 18 -19 0
12 -20 -26 -18 -19 0
12 -20 -26 18 -19 0
12 -20 26 -18 -19 0
12 -20 26 18 -19 0
12 20 -26 18 -19 0
12 20 26 -18 -19 0
12 20 26 18 -19 0
-11 19 25 17 18 0
-11 -19 -25 -17 -18 0
-11 -19 -25 17 -18 0
-11 -19 25 -17 -18 0
-11 -19 25 17 -18 0
-11 19 -25 -17 -18 0
-11 19 25 17 -18 0
11 -19 -25 -17 -18 0
11 -19 -25 17 -18 0
11 -19 25 -17 -18 0
11 -19 25 17 -18 0
11 19 -25 17 -18 0
11 19 25 -17 -18 0
11 19 25 17 -18 0
-10 18 24 16 17 0
-10 -18 -24 -16 -17 0
-10 -18 -24 16 -17 0
-10 -18 24 -16 -17 0
-10 -18 24 16 -17 0
-10 18 -24 -16 -17 0
-10 18 24 16 -17 0
10 -18 -24 -16 -17 0
10 -18 -24 16 -17 0
10 -18 24 -16 -17 0
10 -18 24 16 -17 0
10 18 -24 16 -17 0
10 18 24 -16 -17 0
10 18 24 16 -17 0
-9 17 23 15 16 0
-9 -17 -23 -15 -16 0
-9 -17 -23 15 -16 0
-9 -17 23 -15 -16 0
-9 -17 23 15 -16 0
-9 17 -23 -15 -16 0
-9 17 23 15 -16 0
9 -17 -23 -15 -16 0
9 -17 -23 15 -16 0
9 -17 23 -15 -16 0
9 -17 23 15 -16 0
9 17 -23 15 -16 0
9 17 23 -15 -16 0
9 17 23 15 -16 0
-8 16 22 21 15 0
-8 -16 -22 -21 -15 0
-8 -16 -22 21 -15 0
-8 -16 22 -21 -15 0
-8 -16 22 21 -15 0
-8 16 -22 -21 -15 0
-8 16 22 21 -15 0
8 -16 -22 -21 -15 0
8 -16 -22 21 -15 0
8 -16 22 -21 -15 0
8 -16 22 21 -15 0
8 16 -22 21 -15 0
8 16 22 -21 -15 0
8 16 22 21 -15 0
-7 8 21 13 14 0
-7 -8 -21 -13 -14 0
-7 -8 -21 13 -14 0
-7 -8 21 -13 -14 0
-7 -8 21 13 -14 0
-7 8 -21 -13 -14 0
-7 8 21 13 -14 0
7 -8 -21 -13 -14 0
7 -8 -21 13 -14 0
7 -8 21 -13 -14 0
7 -8 21 13 -14 0
7 8 -21 13 -14 0
7 8 21 -13 -14 0
7 8 21 13 -14 0
-6 14 20 12 13 0
-6 -14 -20 -12 -13 0
-6 -14 -20 12 -13 0
-6 -14 20 -12 -13 0
-6 -14 20 12 -13 0
-6 14 -20 -12 -13 0
-6 14 20 12 -13 0
6 -14 -20 -12 -13 0
6 -14 -20 12 -13 0
6 -14 20 -12 -13 0
6 -14 20 12 -13 0
6 14 -20 12 -13 0
6 14 20 -12 -13 0
6 14 20 12 -13 0
-5 13 19 11 12 0
-5 -13 -19 -11 -12 0
-5 -13 -19 11 -12 0
-5 -13 19 -11 -12 0
-5 -13 19 11 -12 0
-5 13 -19 -11 -12 0
-5 13 19 11 -12 0
5 -13 -19 -11 -12 0
5 -13 -19 11 -12 0
5 -13 19 -11 -12 0
5 -13 19 11 -12 0
5 13 -19 11 -12 0
5 13 19 -11 -12 0
5 13 19 11 -12 0
-4 12 18 10 11 0
-4 -12 -18 -10 -11 0
-4 -12 -18 10 -11 0
-4 -12 18 -10 -11 0
-4 -12 18 10 -11 0
-4 12 -18 -10 -11 0
-4 12 18 10 -11 0
4 -12 -18 -10 -11 0
4 -12 -18 10 -11 0
4 -12 18 -10 -11 0
4 -12 18 10 -11 0
4 12 -18 10 -11 0
4 12 18 -10 -11 0
4 12 18 10 -11 0
-3 11 17 9 10 0
-3 -11 -17 -9 -10 0
-3 -11 -17 9 -10 0
-3 -11 17 -9 -10 0
-3 -11 17 9 -10 0
-3 11 -17 -9 -10 0
-3 11 17 9 -10 0
3 -11 -17 -9 -10 0
3 -11 -17 9 -10 0
3 -11 17 -9 -10 0
3 -11 17 9 -10 0
3 11 -17 9 -10 0
3 11 17 -9 -10 0
3 11 17 9 -10 0
-2 10 16 8 9 0
-2 -10 -16 -8 -9 0
-2 -10 -16 8 -9 0
-2 -10 16 -8 -9 0
-2 -10 16 8 -9 0
-2 10 -16 -8 -9 0
-2 10 16 8 -9 0
2 -10 -16 -8 -9 0
2 -10 -16 8 -9 0
2 -10 16 -8 -9 0
2 -10 16 8 -9 0
2 10 -16 8 -9 0
2 10 16 -8 -9 0
2 10 16 8 -9 0
-1 9 15 14 8 0
-1 -9 -15 -14 -8 0
-1 -9 -15 14 -8 0
-1 -9 15 -14 -8 0
-1 -9 15 14 -8 0
-1 9 -15 -14 -8 0
-1 9 15 14 -8 0
1 -9 -15 -14 -8 0
1 -9 -15 14 -8 0
1 -9 15 -14 -8 0
1 -9 15 14 -8 0
1 9 -15 14 -8 0
1 9 15 -14 -8 0
1 9 15 14 -8 0
-49 1 14 6 7 0
-49 -1 -14 -6 -7 0
-49 -1 -14 6 -7 0
-49 -1 14 -6 -7 0
-49 -1 14 6 -7 0
-49 1 -14 -6 -7 0
-49 1 14 6 -7 0
49 -1 -14 -6 -7 0
49 -1 -14 6 -7 0
49 -1 14 -6 -7 0
49 -1 14 6 -7 0
49 1 -14 6 -7 0
49 1 14 -6 -7 0
49 1 14 6 -7 0
-48 7 13 5 6 0
-48 -7 -13 -5 -6 0
-48 -7 -13 5 -6 0
-48 -7 13 -5 -6 0
-48 -7 13 5 -6 0
-48 7 -13 -5 -6 0
-48 7 13 5 -6 0
48 -7 -13 -5 -6 0
48 -7 -13 5 -6 0
48 -7 13 -5 -6 0
48 -7 13 5 -6 0
48 7 -13 5 -6 0
48 7 13 -5 -6 0
48 7 13 5 -6 0
-47 6 12 4 5 0
-47 -6 -12 -4 -5 0
-47 -6 -12 4 -5 0
-47 -6 12 -4 -5 0
-47 -6 12 4 -5 0
-47 6 -12 -4 -5 0
-47 6 12 4 -5 0
47 -6 -12 -4 -5 0
47 -6 -12 4 -5 0
47 -6 12 -4 -5 0
47 -6 12 4 -5 0
47 6 -12 4 -5 0
47 6 12 -4 -5 0
47 6 12 4 -5 0
-46 5 11 3 4 0
-46 -5 -11 -3 -4 0
-46 -5 -11 3 -4 0
-46 -5 11 -3 -4 0
-46 -5 11 3 -4 0
-46 5 -11 -3 -4 0
-46 5 11 3 -4 0
46 -5 -11 -3 -4 0
46 -5 -11 3 -4 0
46 -5 11 -3 -4 0
46 -5 11 3 -4 0
46 5 -11 3 -4 0
46 5 11 -3 -4 0
46 5 11 3 -4 0
-45 4 10 2 3 0
-45 -4 -10 -2 -3 0
-45 -4 -10 2 -3 0
-45 -4 10 -2 -3 0
-45 -4 10 2 -3 0
-45 4 -10 -2 -3 0
-45 4 10 2 -3 0
45 -4 -10 -2 -3 0
45 -4 -10 2 -3 0
45 -4 10 -2 -3 0
45 -4 10 2 -3 0
45 4 -10 2 -3 0
45 4 10 -2 -3 0
45 4 10 2 -3 0
-44 3 9 1 2 0
-44 -3 -9 -1 -2 0
-44 -3 -9 1 -2 0
-44 -3 9 -1 -2 0
-44 -3 9 1 -2 0
-44 3 -9 -1 -2 0
-44 3 9 1 -2 0
44 -3 -9 -1 -2 0
44 -3 -9 1 -2 0
44 -3 9 -1 -2 0
44 -3 9 1 -2 0
44 3 -9 1 -2 0
44 3 9 -1 -2 0
44 3 9 1 -2 0
-43 2 8 7 1 0
-43 -2 -8 -7 -1 0
-43 -2 -8 7 -1 0
-43 -2 8 -7 -1 0
-43 -2 8 7 -1 0
-43 2 -8 -7 -1 0
-43 2 8 7 -1 0
43 -2 -8 -7 -1 0
43 -2 -8 7 -1 0
43 -2 8 -7 -1 0
43 -2 8 7 -1 0
43 2 -8 7 -1 0
43 2 8 -7 -1 0
43 2 8 7 -1 0
1 2 3 4 5 6 7 8 9 10 11 12 13 14 15 16 17 18 19 20 21 22 23 24 25 26 27 28 29 30 31 32 33 34 35 36 37 38 39 40 41 42 43 44 45 46 47 48 49  0
1 -2 3 4 5 6 7 8 -9 10 11 12 13 14 15 -16 17 18 19 20 21 22 -23 24 25 26 27 28 29 -30 31 32 33 34 35 36 -37 38 39 40 41 42 43 -44 45 46 47 48 49  0
1 2 -3 4 5 6 7 8 9 -10 11 12 13 14 15 16 -17 18 19 20 21 22 23 -24 25 26 27 28 29 30 -31 32 33 34 35 36 37 -38 39 40 41 42 43 44 -45 46 47 48 49  0
1 2 3 -4 5 6 7 8 9 10 -11 12 13 14 15 16 17 -18 19 20 21 22 23 24 -25 26 27 28 29 30 31 -32 33 34 35 36 37 38 -39 40 41 42 43 44 45 -46 47 48 49  0
